row=12;
column=12;
Board=[|1,0,1,1,0,1,0,1,0,1,0,1|0,1,1,0,1,0,1,1,0,0,0,0|1,0,0,0,0,0,0,0,0,0,1,0|0,0,1,0,0,0,0,0,0,0,0,0|0,0,0,0,1,0,1,0,0,0,0,1|0,1,0,0,0,0,0,0,0,1,0,0|0,0,0,0,0,0,0,0,0,0,0,0|0,0,0,0,0,0,0,0,0,0,0,0|0,0,0,0,0,0,0,0,1,0,0,0|1,0,1,0,1,0,0,0,0,0,1,0|0,0,0,0,0,0,1,0,0,0,0,0|0,0,0,0,0,0,0,0,0,0,0,0|];
right = [4,1,2,3,1,3,2,0,3,2,4,1];
bottom = [3,2,4,0,4,0,4,1,2,1,3,2];
